nNurses = 188;
nHours = 36;
minHours = 10;
maxHours = 17;
maxConsec = 17;
maxPresence = 25;
demand = [23, 19, 20, 25, 22, 22, 17, 13, 11, 6, 9, 12, 11, 7, 8, 8, 11, 9, 9, 7, 11, 7, 9, 10, 6, 7, 6, 8, 6, 11, 10, 10, 6, 10, 12, 15];
